\ENCODING=ISO-8859-1
\Problem name: IloCplex

Minimize
 obj: 40 gen(0)(1)(0)#0 + 45 gen(0)(3)(0)#2 + 42 gen(0)(5)(0)#4
      + 80 gen(0)(6)(0)#5 - 1000 dem(0)(1)(0)#6 + 10 RTetaP(0)(5)(0)#45
      + 10 RTetaM(0)(5)(0)#46 + 10 RTetaP(0)(6)(0)#47 + 10 RTetaM(0)(6)(0)#48
      + 0.005 RTetaP(0)(7)(0)#49 + 0.005 RTetaM(0)(7)(0)#50
Subject To
 fbDA(0)(1)(0)#0:    gen(0)(1)(0)#0 - flow(0)(1,2)(0)#7 + flow(0)(6,1)(0)#12
                      = 0
 fbDA(0)(2)(0)#1:    gen(0)(2)(0)#1 + flow(0)(1,2)(0)#7 - flow(0)(2,3)(0)#8
                      = 0
 fbDA(0)(3)(0)#2:    gen(0)(3)(0)#2 + flow(0)(2,3)(0)#8 - flow(0)(3,4)(0)#9
                      = 0
 fbDA(0)(4)(0)#3:    gen(0)(4)(0)#3 + flow(0)(3,4)(0)#9 - flow(0)(4,5)(0)#10
                      = 0
 fbDA(0)(5)(0)#4:    gen(0)(5)(0)#4 + gen(0)(6)(0)#5 + flow(0)(4,5)(0)#10
                     - flow(0)(5,6)(0)#11  = 0
 fbDA(0)(6)(0)#5:    - dem(0)(1)(0)#6 + flow(0)(5,6)(0)#11 - flow(0)(6,1)(0)#12
                      = 0
 dcDA(0)(1,2)(0)#6:  flow(0)(1,2)(0)#7 - 100 theta(0)(1)(0)#13
                     + 100 theta(0)(2)(0)#14  = 0
 dcDA(0)(2,3)(0)#7:  flow(0)(2,3)(0)#8 - 100 theta(0)(2)(0)#14
                     + 100 theta(0)(3)(0)#15  = 0
 dcDA(0)(3,4)(0)#8:  flow(0)(3,4)(0)#9 - 100 theta(0)(3)(0)#15
                     + 100 theta(0)(4)(0)#16  = 0
 dcDA(0)(4,5)(0)#9:  flow(0)(4,5)(0)#10 - 100 theta(0)(4)(0)#16
                     + 100 theta(0)(5)(0)#17  = 0
 dcDA(0)(5,6)(0)#10: flow(0)(5,6)(0)#11 - 100 theta(0)(5)(0)#17
                     + 100 theta(0)(6)(0)#18  = 0
 dcDA(0)(6,1)(0)#11: flow(0)(6,1)(0)#12 + 100 theta(0)(1)(0)#13
                     - 100 theta(0)(6)(0)#18  = 0
 gbuDA(0)(1)(0)#12:  gen(0)(1)(0)#0 <= 100
 gbdDA(0)(1)(0)#13:  gen(0)(1)(0)#0 >= 0
 gbuDA(0)(2)(0)#14:  gen(0)(2)(0)#1 <= 60
 gbdDA(0)(2)(0)#15:  gen(0)(2)(0)#1 >= 0
 gbuDA(0)(3)(0)#16:  gen(0)(3)(0)#2 <= 100
 gbdDA(0)(3)(0)#17:  gen(0)(3)(0)#2 >= 0
 gbuDA(0)(4)(0)#18:  gen(0)(4)(0)#3 <= 60
 gbdDA(0)(4)(0)#19:  gen(0)(4)(0)#3 >= 0
 gbuDA(0)(5)(0)#20:  gen(0)(5)(0)#4 <= 50
 gbdDA(0)(5)(0)#21:  gen(0)(5)(0)#4 >= 0
 gbuDA(0)(6)(0)#22:  gen(0)(6)(0)#5 <= 60
 gbdDA(0)(6)(0)#23:  gen(0)(6)(0)#5 >= 0
 dbuDA(0)(1)(0)#24:  dem(0)(1)(0)#6 <= 264
 dbdDA(0)(1)(0)#25:  dem(0)(1)(0)#6 >= 0
 fbRT(0)(1)(0)#26:   - gen(0)(1)(0)#0 + flow(0)(1,2)(0)#7 - flow(0)(6,1)(0)#12
                     + RTgen(0)(1)(0)#19 - RTflow(0)(1,2)(0)#25
                     + RTflow(0)(6,1)(0)#30  = 0
 fbRT(0)(2)(0)#27:   - gen(0)(2)(0)#1 - flow(0)(1,2)(0)#7 + flow(0)(2,3)(0)#8
                     + RTgen(0)(2)(0)#20 + RTflow(0)(1,2)(0)#25
                     - RTflow(0)(2,3)(0)#26  = 0
 fbRT(0)(3)(0)#28:   - gen(0)(3)(0)#2 - flow(0)(2,3)(0)#8 + flow(0)(3,4)(0)#9
                     + RTgen(0)(3)(0)#21 + RTflow(0)(2,3)(0)#26
                     - RTflow(0)(3,4)(0)#27  = 0
 fbRT(0)(4)(0)#29:   - gen(0)(4)(0)#3 - flow(0)(3,4)(0)#9 + flow(0)(4,5)(0)#10
                     + RTgen(0)(4)(0)#22 + RTflow(0)(3,4)(0)#27
                     - RTflow(0)(4,5)(0)#28  = 0
 fbRT(0)(5)(0)#30:   - gen(0)(5)(0)#4 - gen(0)(6)(0)#5 - flow(0)(4,5)(0)#10
                     + flow(0)(5,6)(0)#11 + RTgen(0)(5)(0)#23
                     + RTgen(0)(6)(0)#24 + RTflow(0)(4,5)(0)#28
                     - RTflow(0)(5,6)(0)#29  = 0
 fbRT(0)(6)(0)#31:   dem(0)(1)(0)#6 - flow(0)(5,6)(0)#11 + flow(0)(6,1)(0)#12
                     + RTflow(0)(5,6)(0)#29 - RTflow(0)(6,1)(0)#30
                     - RTdem(0)(1)(0)#51  = 0
 dcRT(0)(2,1)(0)#32: RTflow(0)(1,2)(0)#25 + 100 RTtheta(0)(1)(0)#31
                     - 100 RTtheta(0)(2)(0)#32  = 0
 dcRT(0)(3,2)(0)#33: RTflow(0)(2,3)(0)#26 + 100 RTtheta(0)(2)(0)#32
                     - 100 RTtheta(0)(3)(0)#33  = 0
 dcRT(0)(4,3)(0)#34: RTflow(0)(3,4)(0)#27 + 100 RTtheta(0)(3)(0)#33
                     - 100 RTtheta(0)(4)(0)#34  = 0
 dcRT(0)(5,4)(0)#35: RTflow(0)(4,5)(0)#28 + 100 RTtheta(0)(4)(0)#34
                     - 100 RTtheta(0)(5)(0)#35  = 0
 dcRT(0)(6,5)(0)#36: RTflow(0)(5,6)(0)#29 + 100 RTtheta(0)(5)(0)#35
                     - 100 RTtheta(0)(6)(0)#36  = 0
 dcRT(0)(1,6)(0)#37: RTflow(0)(6,1)(0)#30 - 100 RTtheta(0)(1)(0)#31
                     + 100 RTtheta(0)(6)(0)#36  = 0
 gbuRT(0)(1)(0)#38:  RTetaP(0)(1)(0)#37 <= 0
 gbdRT(0)(1)(0)#39:  RTetaM(0)(1)(0)#38 <= 0
 gbuRT(0)(3)(0)#40:  RTetaP(0)(3)(0)#41 <= 0
 gbdRT(0)(3)(0)#41:  RTetaM(0)(3)(0)#42 <= 0
 gbuRT(0)(5)(0)#42:  RTetaP(0)(5)(0)#45 <= 50
 gbdRT(0)(5)(0)#43:  RTetaM(0)(5)(0)#46 <= 50
 gbuRT(0)(6)(0)#44:  RTetaP(0)(6)(0)#47 <= 50
 gbdRT(0)(6)(0)#45:  RTetaM(0)(6)(0)#48 <= 50
 dbuRT(0)(7)(0)#46:  RTetaP(0)(7)(0)#49 <= 0
 dbdRT(0)(7)(0)#47:  RTetaM(0)(7)(0)#50 <= 0
 dgRT(0)(1)(0)#48:   gen(0)(1)(0)#0 - RTgen(0)(1)(0)#19 + RTetaP(0)(1)(0)#37
                     - RTetaM(0)(1)(0)#38  = 0
 dgRT(0)(2)(0)#49:   gen(0)(2)(0)#1 - RTgen(0)(2)(0)#20 + RTetaP(0)(2)(0)#39
                     - RTetaM(0)(2)(0)#40  = 0
 dgRT(0)(3)(0)#50:   gen(0)(3)(0)#2 - RTgen(0)(3)(0)#21 + RTetaP(0)(3)(0)#41
                     - RTetaM(0)(3)(0)#42  = 0
 dgRT(0)(4)(0)#51:   gen(0)(4)(0)#3 - RTgen(0)(4)(0)#22 + RTetaP(0)(4)(0)#43
                     - RTetaM(0)(4)(0)#44  = 0
 dgRT(0)(5)(0)#52:   gen(0)(5)(0)#4 - RTgen(0)(5)(0)#23 + RTetaP(0)(5)(0)#45
                     - RTetaM(0)(5)(0)#46  = 0
 dgRT(0)(6)(0)#53:   gen(0)(6)(0)#5 - RTgen(0)(6)(0)#24 + RTetaP(0)(6)(0)#47
                     - RTetaM(0)(6)(0)#48  = 0
 ddRT(0)(7)(0)#54:   dem(0)(1)(0)#6 + RTetaP(0)(7)(0)#49 - RTetaM(0)(7)(0)#50
                     - RTdem(0)(1)(0)#51  = 0
 gaRT(0)(1)(0)#55:   RTgen(0)(2)(0)#20 <= 60
 gaRT(0)(3)(0)#56:   RTgen(0)(4)(0)#22 <= 60
Bounds
 0 <= gen(0)(1)(0)#0 <= 100
 0 <= gen(0)(2)(0)#1 <= 100
 0 <= gen(0)(3)(0)#2 <= 100
 0 <= gen(0)(4)(0)#3 <= 100
 0 <= gen(0)(5)(0)#4 <= 50
 0 <= gen(0)(6)(0)#5 <= 60
 0 <= dem(0)(1)(0)#6 <= 264
      flow(0)(1,2)(0)#7 Free
      flow(0)(2,3)(0)#8 Free
      flow(0)(3,4)(0)#9 Free
      flow(0)(4,5)(0)#10 Free
      flow(0)(5,6)(0)#11 Free
-150 <= flow(0)(6,1)(0)#12 <= 150
-3.14159 <= theta(0)(1)(0)#13 <= 3.14159
-3.14159 <= theta(0)(2)(0)#14 <= 3.14159
-3.14159 <= theta(0)(3)(0)#15 <= 3.14159
-3.14159 <= theta(0)(4)(0)#16 <= 3.14159
-3.14159 <= theta(0)(5)(0)#17 <= 3.14159
-3.14159 <= theta(0)(6)(0)#18 <= 3.14159
 0 <= RTgen(0)(1)(0)#19 <= 100
 0 <= RTgen(0)(2)(0)#20 <= 100
 0 <= RTgen(0)(3)(0)#21 <= 100
 0 <= RTgen(0)(4)(0)#22 <= 100
 0 <= RTgen(0)(5)(0)#23 <= 50
 0 <= RTgen(0)(6)(0)#24 <= 60
      RTflow(0)(1,2)(0)#25 Free
      RTflow(0)(2,3)(0)#26 Free
      RTflow(0)(3,4)(0)#27 Free
      RTflow(0)(4,5)(0)#28 Free
      RTflow(0)(5,6)(0)#29 Free
-150 <= RTflow(0)(6,1)(0)#30 <= 150
-3.14159 <= RTtheta(0)(1)(0)#31 <= 3.14159
-3.14159 <= RTtheta(0)(2)(0)#32 <= 3.14159
-3.14159 <= RTtheta(0)(3)(0)#33 <= 3.14159
-3.14159 <= RTtheta(0)(4)(0)#34 <= 3.14159
-3.14159 <= RTtheta(0)(5)(0)#35 <= 3.14159
-3.14159 <= RTtheta(0)(6)(0)#36 <= 3.14159
 0 <= RTetaP(0)(1)(0)#37 <= 100
 0 <= RTetaM(0)(1)(0)#38 <= 100
 0 <= RTetaP(0)(2)(0)#39 <= 100
 0 <= RTetaM(0)(2)(0)#40 <= 100
 0 <= RTetaP(0)(3)(0)#41 <= 100
 0 <= RTetaM(0)(3)(0)#42 <= 100
 0 <= RTetaP(0)(4)(0)#43 <= 100
 0 <= RTetaM(0)(4)(0)#44 <= 100
 0 <= RTetaP(0)(5)(0)#45 <= 50
 0 <= RTetaM(0)(5)(0)#46 <= 50
 0 <= RTetaP(0)(6)(0)#47 <= 60
 0 <= RTetaM(0)(6)(0)#48 <= 60
 0 <= RTetaP(0)(7)(0)#49 <= 264
 0 <= RTetaM(0)(7)(0)#50 <= 264
 0 <= RTdem(0)(1)(0)#51 <= 264
End
